(set-logic QF_S)
(declare-fun s  () String)
(declare-fun filename_0  () String)
(declare-fun filename_1  () String)
(declare-fun filename_2  () String)
(declare-fun i1 () Int)
(declare-fun i3 () Int)
(declare-fun tmpStr0 () String)
(declare-fun tmpStr1 () String)
(declare-fun tmpStr2 () String)
(assert (= filename_0 s) )
(assert (str.contains filename_0 "/") )
(assert (= filename_0 (str.++ tmpStr0 (str.++ "/" tmpStr1) ) ) )
(assert (not (str.contains tmpStr1 "/") ) )
(assert (= i1 (str.len tmpStr0) ) )
(assert (= i1 (- 0 1) ) )
(assert (= filename_1 filename_0) )
(assert (= i3 (str.indexof filename_1 "." 0) ) )
(assert (str.contains filename_1 ".") ) ; for indexof
(assert (not (= i3 (- 0 1) ) ) )
(assert (= filename_2 (str.substr filename_1 0 i3) ) )
(check-sat)
